
Gurobi 11.0.3 (linux64) logging started Thu Nov 21 16:44:42 2024

Set parameter LogFile to value "/home/yihong/Coding/OR_SUC/SUC_results_bigM100000_thread4/case24_ieee_rts_theta0.5_epsilon0.025_gurobi_seed190000_num_gen100_N_WDR100_load_scaling_factor1_exact_T8quadra_cost.txt"
Set parameter TimeLimit to value 3600
Gurobi Optimizer version 11.0.3 build v11.0.3rc0 (linux64 - "Ubuntu 20.04.6 LTS")

CPU model: AMD EPYC 7532 32-Core Processor, instruction set [SSE2|AVX|AVX2]
Thread count: 64 physical cores, 128 logical processors, using up to 4 threads

Optimize a model with 17083 rows, 10121 columns and 236714 nonzeros
Model fingerprint: 0x3adb23a0
Model has 800 quadratic constraints
Variable types: 9221 continuous, 900 integer (900 binary)
Coefficient statistics:
  Matrix range     [3e-04, 1e+05]
  QMatrix range    [2e-03, 8e-03]
  QLMatrix range   [3e-01, 6e+01]
  Objective range  [1e+00, 1e+00]
  Bounds range     [1e+00, 1e+00]
  RHS range        [1e+00, 1e+05]
Presolve removed 13951 rows and 4552 columns
Presolve time: 0.08s
Presolved: 3132 rows, 5569 columns, 21792 nonzeros
Presolved model has 800 quadratic constraint(s)
Variable types: 4740 continuous, 829 integer (829 binary)

Root relaxation: objective 2.393608e+04, 2435 iterations, 0.04 seconds (0.04 work units)

    Nodes    |    Current Node    |     Objective Bounds      |     Work
 Expl Unexpl |  Obj  Depth IntInf | Incumbent    BestBd   Gap | It/Node Time

     0     0 23936.0789    0    4          - 23936.0789      -     -    0s
     0     0 177175.518    0  187          - 177175.518      -     -    0s
     0     0 263668.654    0  180          - 263668.654      -     -    0s
     0     0 263764.277    0  172          - 263764.277      -     -    0s
     0     0 263974.390    0   90          - 263974.390      -     -    0s
     0     0 263976.875    0   88          - 263976.875      -     -    0s
     0     0 263976.875    0   88          - 263976.875      -     -    0s
     0     0 263976.941    0   88          - 263976.941      -     -    0s
     0     2 263976.941    0   88          - 263976.941      -     -    1s
H  247   257                    264022.21720 263987.114  0.01%  10.0    1s
*  247   257              71    264022.21720 263987.114  0.01%  10.1    1s

Cutting planes:
  Gomory: 46
  Implied bound: 232
  MIR: 57
  Flow cover: 112

Explored 278 nodes (9674 simplex iterations) in 1.98 seconds (2.15 work units)
Thread count was 4 (of 128 available processors)

Solution count 2: 264022 264022 

Optimal solution found (tolerance 1.00e-03)
Warning: max constraint violation (4.3054e-08) exceeds tolerance
Best objective 2.640222171978e+05, best bound 2.639871139432e+05, gap 0.0133%
